c 
p cnf 115 189
4 13 21 0
-21 -15 -5 0
-6 -9 22 0
-22 -3 16 0
16 23 24 0
16 23 -24 0
16 -23 24 0
16 -23 -24 0
9 1 25 0
-25 12 26 0
-26 2 6 0
20 -9 27 0
20 -9 -27 0
-15 -8 28 0
-15 -8 -28 0
6 -9 29 0
6 -9 -29 0
-4 10 30 0
-30 -13 31 0
-31 3 12 0
-18 -16 13 0
-1 -16 32 0
-32 14 -5 0
-15 3 33 0
-33 12 1 0
-9 -5 34 0
-34 2 20 0
-5 7 35 0
-35 9 36 0
-36 18 -15 0
10 14 3 0
10 37 38 0
10 37 -38 0
10 -37 38 0
10 -37 -38 0
-17 39 40 0
-17 39 -40 0
-17 -39 40 0
-17 -39 -40 0
3 17 41 0
-41 8 42 0
-42 -4 16 0
17 -1 43 0
17 -1 -43 0
20 44 45 0
20 44 -45 0
20 -44 45 0
20 -44 -45 0
8 46 47 0
8 46 -47 0
8 -46 47 0
8 -46 -47 0
-8 9 48 0
-8 9 -48 0
10 49 50 0
10 49 -50 0
10 -49 50 0
10 -49 -50 0
4 17 -10 0
19 51 52 0
19 51 -52 0
19 -51 52 0
19 -51 -52 0
-4 18 6 0
19 18 53 0
19 18 -53 0
13 15 54 0
13 15 -54 0
-1 -19 55 0
-55 6 -14 0
10 56 57 0
10 56 -57 0
10 -56 57 0
10 -56 -57 0
4 -15 58 0
-58 14 -1 0
8 -13 11 0
-7 5 59 0
-7 5 -59 0
16 60 61 0
16 60 -61 0
16 -60 61 0
16 -60 -61 0
-8 19 62 0
-62 2 20 0
-4 -12 63 0
-4 -12 -63 0
16 -19 64 0
16 -19 -64 0
3 -20 65 0
-65 16 5 0
-8 66 67 0
-8 66 -67 0
-8 -66 67 0
-8 -66 -67 0
-6 -7 68 0
-68 -17 -18 0
-15 3 69 0
-69 -8 5 0
20 -8 70 0
-70 -7 71 0
-71 -5 -11 0
5 -7 72 0
-72 19 73 0
-73 -10 20 0
10 12 74 0
-74 5 75 0
-75 -18 -15 0
14 17 76 0
-76 11 10 0
-4 2 77 0
-77 -20 16 0
4 9 78 0
4 9 -78 0
9 -8 3 0
11 -4 79 0
-79 12 -3 0
6 80 81 0
6 80 -81 0
6 -80 81 0
6 -80 -81 0
-3 15 82 0
-82 18 -11 0
13 -3 83 0
-83 -9 84 0
-84 17 -15 0
-8 4 85 0
-85 14 86 0
-86 13 15 0
-8 14 87 0
-87 4 -5 0
1 -5 88 0
-88 16 89 0
-89 -20 7 0
-20 -7 15 0
18 90 91 0
18 90 -91 0
18 -90 91 0
18 -90 -91 0
13 6 92 0
-92 9 -11 0
-8 93 94 0
-8 93 -94 0
-8 -93 94 0
-8 -93 -94 0
7 -15 95 0
7 -15 -95 0
4 -1 96 0
-96 -11 -18 0
2 18 97 0
-97 -19 98 0
-98 -12 16 0
-19 20 -13 0
-1 -17 99 0
-99 -8 100 0
-100 -9 16 0
15 -8 101 0
-101 2 -5 0
-10 19 102 0
-102 14 -13 0
-15 103 104 0
-15 103 -104 0
-15 -103 104 0
-15 -103 -104 0
-12 -14 105 0
-12 -14 -105 0
-7 -11 106 0
-106 -1 107 0
-107 -13 15 0
5 1 108 0
-108 -9 109 0
-109 4 12 0
-4 18 110 0
-110 12 -20 0
-11 2 6 0
10 17 111 0
10 17 -111 0
12 -10 -14 0
-13 16 112 0
-13 16 -112 0
-17 13 -12 0
-6 10 113 0
-6 10 -113 0
7 3 114 0
-114 17 1 0
8 -10 -1 0
18 -5 115 0
18 -5 -115 0
-16 -10 11 0
